\Problem name: compact

Minimize
OBJROW: C
Subject To
ord(0,1):  - x(0,0) + x(0,2) >= 10
ord(0,2):  x(0,1) - x(0,2) >= 1
ord(1,1):  - x(1,0) + x(1,1) >= 3
ord(1,2):  - x(1,1) + x(1,2) >= 9
ord(2,1):  x(2,0) - x(2,1) >= 6
ord(2,2):  - x(2,0) + x(2,2) >= 7
ord(3,1):  x(3,1) - x(3,2) >= 8
ord(3,2):  x(3,0) - x(3,1) >= 9
triangle2(0,1,0):  y(0,1,0) + y(1,0,0) = 1
triangle2(0,1,1):  y(0,1,1) + y(1,0,1) = 1
triangle2(0,1,2):  y(0,1,2) + y(1,0,2) = 1
triangle2(0,2,0):  y(0,2,0) + y(2,0,0) = 1
triangle2(0,2,1):  y(0,2,1) + y(2,0,1) = 1
triangle2(0,2,2):  y(0,2,2) + y(2,0,2) = 1
triangle2(0,3,0):  y(0,3,0) + y(3,0,0) = 1
triangle2(0,3,1):  y(0,3,1) + y(3,0,1) = 1
triangle2(0,3,2):  y(0,3,2) + y(3,0,2) = 1
triangle2(1,2,0):  y(1,2,0) + y(2,1,0) = 1
triangle2(1,2,1):  y(1,2,1) + y(2,1,1) = 1
triangle2(1,2,2):  y(1,2,2) + y(2,1,2) = 1
triangle2(1,3,0):  y(1,3,0) + y(3,1,0) = 1
triangle2(1,3,1):  y(1,3,1) + y(3,1,1) = 1
triangle2(1,3,2):  y(1,3,2) + y(3,1,2) = 1
triangle2(2,3,0):  y(2,3,0) + y(3,2,0) = 1
triangle2(2,3,1):  y(2,3,1) + y(3,2,1) = 1
triangle2(2,3,2):  y(2,3,2) + y(3,2,2) = 1
MCLinV(0,1,0):  x(0,0) - v(0,1,0) - x(1,0) = 3
MCLinV(1,0,0):  - x(0,0) - v(1,0,0) + x(1,0) = 10
MCLin1(0,1,0):  u(0,1,0) >= -0
MCLin2(0,1,0):  -58 y(1,0,0) - u(0,1,0) <= -0
MCLin3(0,1,0):  50 y(1,0,0) + v(0,1,0) - u(0,1,0) <= 50
MCLin4(0,1,0):  50 y(1,0,0) - u(0,1,0) >= -0
MCLin5(0,1,0):  -58 y(1,0,0) + v(0,1,0) - u(0,1,0) >= -58
MCLin6(1,0,0):  u(1,0,0) >= -0
MCLin7(1,0,0):  -63 y(0,1,0) - u(1,0,0) <= -0
MCLin8(1,0,0):  45 y(0,1,0) + v(1,0,0) - u(1,0,0) <= 45
MCLin9(1,0,0):  45 y(0,1,0) - u(1,0,0) >= -0
MCLin10(1,0,0):  -63 y(0,1,0) + v(1,0,0) - u(1,0,0) >= -63
MCLinV(0,1,1):  x(0,1) - v(0,1,1) - x(1,1) = 9
MCLinV(1,0,1):  - x(0,1) - v(1,0,1) + x(1,1) = 4
MCLin1(0,1,1):  u(0,1,1) >= -0
MCLin2(0,1,1):  -56 y(1,0,1) - u(0,1,1) <= -0
MCLin3(0,1,1):  52 y(1,0,1) + v(0,1,1) - u(0,1,1) <= 52
MCLin4(0,1,1):  52 y(1,0,1) - u(0,1,1) >= -0
MCLin5(0,1,1):  -56 y(1,0,1) + v(0,1,1) - u(0,1,1) >= -56
MCLin6(1,0,1):  u(1,0,1) >= -0
MCLin7(1,0,1):  -65 y(0,1,1) - u(1,0,1) <= -0
MCLin8(1,0,1):  43 y(0,1,1) + v(1,0,1) - u(1,0,1) <= 43
MCLin9(1,0,1):  43 y(0,1,1) - u(1,0,1) >= -0
MCLin10(1,0,1):  -65 y(0,1,1) + v(1,0,1) - u(1,0,1) >= -65
MCLinV(0,1,2):  x(0,2) - v(0,1,2) - x(1,2) = 1
MCLinV(1,0,2):  - x(0,2) - v(1,0,2) + x(1,2) = 1
MCLin1(0,1,2):  u(0,1,2) >= -0
MCLin2(0,1,2):  -58 y(1,0,2) - u(0,1,2) <= -0
MCLin3(0,1,2):  50 y(1,0,2) + v(0,1,2) - u(0,1,2) <= 50
MCLin4(0,1,2):  50 y(1,0,2) - u(0,1,2) >= -0
MCLin5(0,1,2):  -58 y(1,0,2) + v(0,1,2) - u(0,1,2) >= -58
MCLin6(1,0,2):  u(1,0,2) >= -0
MCLin7(1,0,2):  -52 y(0,1,2) - u(1,0,2) <= -0
MCLin8(1,0,2):  56 y(0,1,2) + v(1,0,2) - u(1,0,2) <= 56
MCLin9(1,0,2):  56 y(0,1,2) - u(1,0,2) >= -0
MCLin10(1,0,2):  -52 y(0,1,2) + v(1,0,2) - u(1,0,2) >= -52
MCLinV(0,2,0):  x(0,0) - v(0,2,0) - x(2,0) = 7
MCLinV(2,0,0):  - x(0,0) - v(2,0,0) + x(2,0) = 10
MCLin1(0,2,0):  u(0,2,0) >= -0
MCLin2(0,2,0):  -64 y(2,0,0) - u(0,2,0) <= -0
MCLin3(0,2,0):  40 y(2,0,0) + v(0,2,0) - u(0,2,0) <= 40
MCLin4(0,2,0):  40 y(2,0,0) - u(0,2,0) >= -0
MCLin5(0,2,0):  -64 y(2,0,0) + v(0,2,0) - u(0,2,0) >= -64
MCLin6(2,0,0):  u(2,0,0) >= -0
MCLin7(2,0,0):  -57 y(0,2,0) - u(2,0,0) <= -0
MCLin8(2,0,0):  47 y(0,2,0) + v(2,0,0) - u(2,0,0) <= 47
MCLin9(2,0,0):  47 y(0,2,0) - u(2,0,0) >= -0
MCLin10(2,0,0):  -57 y(0,2,0) + v(2,0,0) - u(2,0,0) >= -57
MCLinV(0,2,1):  x(0,1) - v(0,2,1) - x(2,1) = 6
MCLinV(2,0,1):  - x(0,1) - v(2,0,1) + x(2,1) = 4
MCLin1(0,2,1):  u(0,2,1) >= -0
MCLin2(0,2,1):  -46 y(2,0,1) - u(0,2,1) <= -0
MCLin3(0,2,1):  58 y(2,0,1) + v(0,2,1) - u(0,2,1) <= 58
MCLin4(0,2,1):  58 y(2,0,1) - u(0,2,1) >= -0
MCLin5(0,2,1):  -46 y(2,0,1) + v(0,2,1) - u(0,2,1) >= -46
MCLin6(2,0,1):  u(2,0,1) >= -0
MCLin7(2,0,1):  -68 y(0,2,1) - u(2,0,1) <= -0
MCLin8(2,0,1):  36 y(0,2,1) + v(2,0,1) - u(2,0,1) <= 36
MCLin9(2,0,1):  36 y(0,2,1) - u(2,0,1) >= -0
MCLin10(2,0,1):  -68 y(0,2,1) + v(2,0,1) - u(2,0,1) >= -68
MCLinV(0,2,2):  x(0,2) - v(0,2,2) - x(2,2) = 4
MCLinV(2,0,2):  - x(0,2) - v(2,0,2) + x(2,2) = 1
MCLin1(0,2,2):  u(0,2,2) >= -0
MCLin2(0,2,2):  -58 y(2,0,2) - u(0,2,2) <= -0
MCLin3(0,2,2):  46 y(2,0,2) + v(0,2,2) - u(0,2,2) <= 46
MCLin4(0,2,2):  46 y(2,0,2) - u(0,2,2) >= -0
MCLin5(0,2,2):  -58 y(2,0,2) + v(0,2,2) - u(0,2,2) >= -58
MCLin6(2,0,2):  u(2,0,2) >= -0
MCLin7(2,0,2):  -51 y(0,2,2) - u(2,0,2) <= -0
MCLin8(2,0,2):  53 y(0,2,2) + v(2,0,2) - u(2,0,2) <= 53
MCLin9(2,0,2):  53 y(0,2,2) - u(2,0,2) >= -0
MCLin10(2,0,2):  -51 y(0,2,2) + v(2,0,2) - u(2,0,2) >= -51
MCLinV(0,3,0):  x(0,0) - v(0,3,0) - x(3,0) = 6
MCLinV(3,0,0):  - x(0,0) - v(3,0,0) + x(3,0) = 10
MCLin1(0,3,0):  u(0,3,0) >= -0
MCLin2(0,3,0):  -68 y(3,0,0) - u(0,3,0) <= -0
MCLin3(0,3,0):  30 y(3,0,0) + v(0,3,0) - u(0,3,0) <= 30
MCLin4(0,3,0):  30 y(3,0,0) - u(0,3,0) >= -0
MCLin5(0,3,0):  -68 y(3,0,0) + v(0,3,0) - u(0,3,0) >= -68
MCLin6(3,0,0):  u(3,0,0) >= -0
MCLin7(3,0,0):  -46 y(0,3,0) - u(3,0,0) <= -0
MCLin8(3,0,0):  52 y(0,3,0) + v(3,0,0) - u(3,0,0) <= 52
MCLin9(3,0,0):  52 y(0,3,0) - u(3,0,0) >= -0
MCLin10(3,0,0):  -46 y(0,3,0) + v(3,0,0) - u(3,0,0) >= -46
MCLinV(0,3,1):  x(0,1) - v(0,3,1) - x(3,1) = 9
MCLinV(3,0,1):  - x(0,1) - v(3,0,1) + x(3,1) = 4
MCLin1(0,3,1):  u(0,3,1) >= -0
MCLin2(0,3,1):  -51 y(3,0,1) - u(0,3,1) <= -0
MCLin3(0,3,1):  47 y(3,0,1) + v(0,3,1) - u(0,3,1) <= 47
MCLin4(0,3,1):  47 y(3,0,1) - u(0,3,1) >= -0
MCLin5(0,3,1):  -51 y(3,0,1) + v(0,3,1) - u(0,3,1) >= -51
MCLin6(3,0,1):  u(3,0,1) >= -0
MCLin7(3,0,1):  -60 y(0,3,1) - u(3,0,1) <= -0
MCLin8(3,0,1):  38 y(0,3,1) + v(3,0,1) - u(3,0,1) <= 38
MCLin9(3,0,1):  38 y(0,3,1) - u(3,0,1) >= -0
MCLin10(3,0,1):  -60 y(0,3,1) + v(3,0,1) - u(3,0,1) >= -60
MCLinV(0,3,2):  x(0,2) - v(0,3,2) - x(3,2) = 8
MCLinV(3,0,2):  - x(0,2) - v(3,0,2) + x(3,2) = 1
MCLin1(0,3,2):  u(0,3,2) >= -0
MCLin2(0,3,2):  -43 y(3,0,2) - u(0,3,2) <= -0
MCLin3(0,3,2):  55 y(3,0,2) + v(0,3,2) - u(0,3,2) <= 55
MCLin4(0,3,2):  55 y(3,0,2) - u(0,3,2) >= -0
MCLin5(0,3,2):  -43 y(3,0,2) + v(0,3,2) - u(0,3,2) >= -43
MCLin6(3,0,2):  u(3,0,2) >= -0
MCLin7(3,0,2):  -64 y(0,3,2) - u(3,0,2) <= -0
MCLin8(3,0,2):  34 y(0,3,2) + v(3,0,2) - u(3,0,2) <= 34
MCLin9(3,0,2):  34 y(0,3,2) - u(3,0,2) >= -0
MCLin10(3,0,2):  -64 y(0,3,2) + v(3,0,2) - u(3,0,2) >= -64
MCLinV(1,2,0):  x(1,0) - v(1,2,0) - x(2,0) = 7
MCLinV(2,1,0):  - x(1,0) - v(2,1,0) + x(2,0) = 3
MCLin1(1,2,0):  u(1,2,0) >= -0
MCLin2(1,2,0):  -64 y(2,1,0) - u(1,2,0) <= -0
MCLin3(1,2,0):  42 y(2,1,0) + v(1,2,0) - u(1,2,0) <= 42
MCLin4(1,2,0):  42 y(2,1,0) - u(1,2,0) >= -0
MCLin5(1,2,0):  -64 y(2,1,0) + v(1,2,0) - u(1,2,0) >= -64
MCLin6(2,1,0):  u(2,1,0) >= -0
MCLin7(2,1,0):  -52 y(1,2,0) - u(2,1,0) <= -0
MCLin8(2,1,0):  54 y(1,2,0) + v(2,1,0) - u(2,1,0) <= 54
MCLin9(2,1,0):  54 y(1,2,0) - u(2,1,0) >= -0
MCLin10(2,1,0):  -52 y(1,2,0) + v(2,1,0) - u(2,1,0) >= -52
MCLinV(1,2,1):  x(1,1) - v(1,2,1) - x(2,1) = 6
MCLinV(2,1,1):  - x(1,1) - v(2,1,1) + x(2,1) = 9
MCLin1(1,2,1):  u(1,2,1) >= -0
MCLin2(1,2,1):  -54 y(2,1,1) - u(1,2,1) <= -0
MCLin3(1,2,1):  52 y(2,1,1) + v(1,2,1) - u(1,2,1) <= 52
MCLin4(1,2,1):  52 y(2,1,1) - u(1,2,1) >= -0
MCLin5(1,2,1):  -54 y(2,1,1) + v(1,2,1) - u(1,2,1) >= -54
MCLin6(2,1,1):  u(2,1,1) >= -0
MCLin7(2,1,1):  -67 y(1,2,1) - u(2,1,1) <= -0
MCLin8(2,1,1):  39 y(1,2,1) + v(2,1,1) - u(2,1,1) <= 39
MCLin9(2,1,1):  39 y(1,2,1) - u(2,1,1) >= -0
MCLin10(2,1,1):  -67 y(1,2,1) + v(2,1,1) - u(2,1,1) >= -67
MCLinV(1,2,2):  x(1,2) - v(1,2,2) - x(2,2) = 4
MCLinV(2,1,2):  - x(1,2) - v(2,1,2) + x(2,2) = 1
MCLin1(1,2,2):  u(1,2,2) >= -0
MCLin2(1,2,2):  -56 y(2,1,2) - u(1,2,2) <= -0
MCLin3(1,2,2):  50 y(2,1,2) + v(1,2,2) - u(1,2,2) <= 50
MCLin4(1,2,2):  50 y(2,1,2) - u(1,2,2) >= -0
MCLin5(1,2,2):  -56 y(2,1,2) + v(1,2,2) - u(1,2,2) >= -56
MCLin6(2,1,2):  u(2,1,2) >= -0
MCLin7(2,1,2):  -55 y(1,2,2) - u(2,1,2) <= -0
MCLin8(2,1,2):  51 y(1,2,2) + v(2,1,2) - u(2,1,2) <= 51
MCLin9(2,1,2):  51 y(1,2,2) - u(2,1,2) >= -0
MCLin10(2,1,2):  -55 y(1,2,2) + v(2,1,2) - u(2,1,2) >= -55
MCLinV(1,3,0):  x(1,0) - v(1,3,0) - x(3,0) = 6
MCLinV(3,1,0):  - x(1,0) - v(3,1,0) + x(3,0) = 3
MCLin1(1,3,0):  u(1,3,0) >= -0
MCLin2(1,3,0):  -68 y(3,1,0) - u(1,3,0) <= -0
MCLin3(1,3,0):  32 y(3,1,0) + v(1,3,0) - u(1,3,0) <= 32
MCLin4(1,3,0):  32 y(3,1,0) - u(1,3,0) >= -0
MCLin5(1,3,0):  -68 y(3,1,0) + v(1,3,0) - u(1,3,0) >= -68
MCLin6(3,1,0):  u(3,1,0) >= -0
MCLin7(3,1,0):  -41 y(1,3,0) - u(3,1,0) <= -0
MCLin8(3,1,0):  59 y(1,3,0) + v(3,1,0) - u(3,1,0) <= 59
MCLin9(3,1,0):  59 y(1,3,0) - u(3,1,0) >= -0
MCLin10(3,1,0):  -41 y(1,3,0) + v(3,1,0) - u(3,1,0) >= -41
MCLinV(1,3,1):  x(1,1) - v(1,3,1) - x(3,1) = 9
MCLinV(3,1,1):  - x(1,1) - v(3,1,1) + x(3,1) = 9
MCLin1(1,3,1):  u(1,3,1) >= -0
MCLin2(1,3,1):  -59 y(3,1,1) - u(1,3,1) <= -0
MCLin3(1,3,1):  41 y(3,1,1) + v(1,3,1) - u(1,3,1) <= 41
MCLin4(1,3,1):  41 y(3,1,1) - u(1,3,1) >= -0
MCLin5(1,3,1):  -59 y(3,1,1) + v(1,3,1) - u(1,3,1) >= -59
MCLin6(3,1,1):  u(3,1,1) >= -0
MCLin7(3,1,1):  -59 y(1,3,1) - u(3,1,1) <= -0
MCLin8(3,1,1):  41 y(1,3,1) + v(3,1,1) - u(3,1,1) <= 41
MCLin9(3,1,1):  41 y(1,3,1) - u(3,1,1) >= -0
MCLin10(3,1,1):  -59 y(1,3,1) + v(3,1,1) - u(3,1,1) >= -59
MCLinV(1,3,2):  x(1,2) - v(1,3,2) - x(3,2) = 8
MCLinV(3,1,2):  - x(1,2) - v(3,1,2) + x(3,2) = 1
MCLin1(1,3,2):  u(1,3,2) >= -0
MCLin2(1,3,2):  -41 y(3,1,2) - u(1,3,2) <= -0
MCLin3(1,3,2):  59 y(3,1,2) + v(1,3,2) - u(1,3,2) <= 59
MCLin4(1,3,2):  59 y(3,1,2) - u(1,3,2) >= -0
MCLin5(1,3,2):  -41 y(3,1,2) + v(1,3,2) - u(1,3,2) >= -41
MCLin6(3,1,2):  u(3,1,2) >= -0
MCLin7(3,1,2):  -68 y(1,3,2) - u(3,1,2) <= -0
MCLin8(3,1,2):  32 y(1,3,2) + v(3,1,2) - u(3,1,2) <= 32
MCLin9(3,1,2):  32 y(1,3,2) - u(3,1,2) >= -0
MCLin10(3,1,2):  -68 y(1,3,2) + v(3,1,2) - u(3,1,2) >= -68
MCLinV(2,3,0):  x(2,0) - v(2,3,0) - x(3,0) = 6
MCLinV(3,2,0):  - x(2,0) - v(3,2,0) + x(3,0) = 7
MCLin1(2,3,0):  u(2,3,0) >= -0
MCLin2(2,3,0):  -62 y(3,2,0) - u(2,3,0) <= -0
MCLin3(2,3,0):  34 y(3,2,0) + v(2,3,0) - u(2,3,0) <= 34
MCLin4(2,3,0):  34 y(3,2,0) - u(2,3,0) >= -0
MCLin5(2,3,0):  -62 y(3,2,0) + v(2,3,0) - u(2,3,0) >= -62
MCLin6(3,2,0):  u(3,2,0) >= -0
MCLin7(3,2,0):  -47 y(2,3,0) - u(3,2,0) <= -0
MCLin8(3,2,0):  49 y(2,3,0) + v(3,2,0) - u(3,2,0) <= 49
MCLin9(3,2,0):  49 y(2,3,0) - u(3,2,0) >= -0
MCLin10(3,2,0):  -47 y(2,3,0) + v(3,2,0) - u(3,2,0) >= -47
MCLinV(2,3,1):  x(2,1) - v(2,3,1) - x(3,1) = 9
MCLinV(3,2,1):  - x(2,1) - v(3,2,1) + x(3,1) = 6
MCLin1(2,3,1):  u(2,3,1) >= -0
MCLin2(2,3,1):  -62 y(3,2,1) - u(2,3,1) <= -0
MCLin3(2,3,1):  34 y(3,2,1) + v(2,3,1) - u(2,3,1) <= 34
MCLin4(2,3,1):  34 y(3,2,1) - u(2,3,1) >= -0
MCLin5(2,3,1):  -62 y(3,2,1) + v(2,3,1) - u(2,3,1) >= -62
MCLin6(3,2,1):  u(3,2,1) >= -0
MCLin7(3,2,1):  -49 y(2,3,1) - u(3,2,1) <= -0
MCLin8(3,2,1):  47 y(2,3,1) + v(3,2,1) - u(3,2,1) <= 47
MCLin9(3,2,1):  47 y(2,3,1) - u(3,2,1) >= -0
MCLin10(3,2,1):  -49 y(2,3,1) + v(3,2,1) - u(3,2,1) >= -49
MCLinV(2,3,2):  x(2,2) - v(2,3,2) - x(3,2) = 8
MCLinV(3,2,2):  - x(2,2) - v(3,2,2) + x(3,2) = 4
MCLin1(2,3,2):  u(2,3,2) >= -0
MCLin2(2,3,2):  -40 y(3,2,2) - u(2,3,2) <= -0
MCLin3(2,3,2):  56 y(3,2,2) + v(2,3,2) - u(2,3,2) <= 56
MCLin4(2,3,2):  56 y(3,2,2) - u(2,3,2) >= -0
MCLin5(2,3,2):  -40 y(3,2,2) + v(2,3,2) - u(2,3,2) >= -40
MCLin6(3,2,2):  u(3,2,2) >= -0
MCLin7(3,2,2):  -68 y(2,3,2) - u(3,2,2) <= -0
MCLin8(3,2,2):  28 y(2,3,2) + v(3,2,2) - u(3,2,2) <= 28
MCLin9(3,2,2):  28 y(2,3,2) - u(3,2,2) >= -0
MCLin10(3,2,2):  -68 y(2,3,2) + v(3,2,2) - u(3,2,2) >= -68
makespan(0):  C - x(0,1) >= 4
makespan(1):  C - x(1,2) >= 1
makespan(2):  C - x(2,2) >= 4
makespan(3):  C - x(3,0) >= 6
Bounds
 0 <= C <= 68
 0 <= x(0,0) <= 53
 0 <= y(0,1,0) <= 1
 0 <= y(1,0,0) <= 1
 -58 <= v(0,1,0) <= 50
 -63 <= v(1,0,0) <= 45
 -680 <= u(0,1,0)
 -680 <= u(1,0,0)
 0 <= y(0,2,0) <= 1
 0 <= y(2,0,0) <= 1
 -64 <= v(0,2,0) <= 40
 -57 <= v(2,0,0) <= 47
 -680 <= u(0,2,0)
 -680 <= u(2,0,0)
 0 <= y(0,3,0) <= 1
 0 <= y(3,0,0) <= 1
 -68 <= v(0,3,0) <= 30
 -46 <= v(3,0,0) <= 52
 -680 <= u(0,3,0)
 -680 <= u(3,0,0)
 0 <= x(1,0) <= 55
 0 <= y(1,2,0) <= 1
 0 <= y(2,1,0) <= 1
 -64 <= v(1,2,0) <= 42
 -52 <= v(2,1,0) <= 54
 -680 <= u(1,2,0)
 -680 <= u(2,1,0)
 0 <= y(1,3,0) <= 1
 0 <= y(3,1,0) <= 1
 -68 <= v(1,3,0) <= 32
 -41 <= v(3,1,0) <= 59
 -680 <= u(1,3,0)
 -680 <= u(3,1,0)
 6 <= x(2,0) <= 57
 0 <= y(2,3,0) <= 1
 0 <= y(3,2,0) <= 1
 -62 <= v(2,3,0) <= 34
 -47 <= v(3,2,0) <= 49
 -680 <= u(2,3,0)
 -680 <= u(3,2,0)
 17 <= x(3,0) <= 62
 11 <= x(0,1) <= 64
 0 <= y(0,1,1) <= 1
 0 <= y(1,0,1) <= 1
 -56 <= v(0,1,1) <= 52
 -65 <= v(1,0,1) <= 43
 -680 <= u(0,1,1)
 -680 <= u(1,0,1)
 0 <= y(0,2,1) <= 1
 0 <= y(2,0,1) <= 1
 -46 <= v(0,2,1) <= 58
 -68 <= v(2,0,1) <= 36
 -680 <= u(0,2,1)
 -680 <= u(2,0,1)
 0 <= y(0,3,1) <= 1
 0 <= y(3,0,1) <= 1
 -51 <= v(0,3,1) <= 47
 -60 <= v(3,0,1) <= 38
 -680 <= u(0,3,1)
 -680 <= u(3,0,1)
 3 <= x(1,1) <= 58
 0 <= y(1,2,1) <= 1
 0 <= y(2,1,1) <= 1
 -54 <= v(1,2,1) <= 52
 -67 <= v(2,1,1) <= 39
 -680 <= u(1,2,1)
 -680 <= u(2,1,1)
 0 <= y(1,3,1) <= 1
 0 <= y(3,1,1) <= 1
 -59 <= v(1,3,1) <= 41
 -59 <= v(3,1,1) <= 41
 -680 <= u(1,3,1)
 -680 <= u(3,1,1)
 0 <= x(2,1) <= 51
 0 <= y(2,3,1) <= 1
 0 <= y(3,2,1) <= 1
 -62 <= v(2,3,1) <= 34
 -49 <= v(3,2,1) <= 47
 -680 <= u(2,3,1)
 -680 <= u(3,2,1)
 8 <= x(3,1) <= 53
 10 <= x(0,2) <= 63
 0 <= y(0,1,2) <= 1
 0 <= y(1,0,2) <= 1
 -58 <= v(0,1,2) <= 50
 -52 <= v(1,0,2) <= 56
 -680 <= u(0,1,2)
 -680 <= u(1,0,2)
 0 <= y(0,2,2) <= 1
 0 <= y(2,0,2) <= 1
 -58 <= v(0,2,2) <= 46
 -51 <= v(2,0,2) <= 53
 -680 <= u(0,2,2)
 -680 <= u(2,0,2)
 0 <= y(0,3,2) <= 1
 0 <= y(3,0,2) <= 1
 -43 <= v(0,3,2) <= 55
 -64 <= v(3,0,2) <= 34
 -680 <= u(0,3,2)
 -680 <= u(3,0,2)
 12 <= x(1,2) <= 67
 0 <= y(1,2,2) <= 1
 0 <= y(2,1,2) <= 1
 -56 <= v(1,2,2) <= 50
 -55 <= v(2,1,2) <= 51
 -680 <= u(1,2,2)
 -680 <= u(2,1,2)
 0 <= y(1,3,2) <= 1
 0 <= y(3,1,2) <= 1
 -41 <= v(1,3,2) <= 59
 -68 <= v(3,1,2) <= 32
 -680 <= u(1,3,2)
 -680 <= u(3,1,2)
 13 <= x(2,2) <= 64
 0 <= y(2,3,2) <= 1
 0 <= y(3,2,2) <= 1
 -40 <= v(2,3,2) <= 56
 -68 <= v(3,2,2) <= 28
 -680 <= u(2,3,2)
 -680 <= u(3,2,2)
 0 <= x(3,2) <= 45
Integers
C x(0,0) y(0,1,0) y(1,0,0) v(0,1,0) v(1,0,0) u(0,1,0) u(1,0,0) y(0,2,0) y(2,0,0) 
v(0,2,0) v(2,0,0) u(0,2,0) u(2,0,0) y(0,3,0) y(3,0,0) v(0,3,0) v(3,0,0) u(0,3,0) u(3,0,0) 
x(1,0) y(1,2,0) y(2,1,0) v(1,2,0) v(2,1,0) u(1,2,0) u(2,1,0) y(1,3,0) y(3,1,0) v(1,3,0) 
v(3,1,0) u(1,3,0) u(3,1,0) x(2,0) y(2,3,0) y(3,2,0) v(2,3,0) v(3,2,0) u(2,3,0) u(3,2,0) 
x(3,0) x(0,1) y(0,1,1) y(1,0,1) v(0,1,1) v(1,0,1) u(0,1,1) u(1,0,1) y(0,2,1) y(2,0,1) 
v(0,2,1) v(2,0,1) u(0,2,1) u(2,0,1) y(0,3,1) y(3,0,1) v(0,3,1) v(3,0,1) u(0,3,1) u(3,0,1) 
x(1,1) y(1,2,1) y(2,1,1) v(1,2,1) v(2,1,1) u(1,2,1) u(2,1,1) y(1,3,1) y(3,1,1) v(1,3,1) 
v(3,1,1) u(1,3,1) u(3,1,1) x(2,1) y(2,3,1) y(3,2,1) v(2,3,1) v(3,2,1) u(2,3,1) u(3,2,1) 
x(3,1) x(0,2) y(0,1,2) y(1,0,2) v(0,1,2) v(1,0,2) u(0,1,2) u(1,0,2) y(0,2,2) y(2,0,2) 
v(0,2,2) v(2,0,2) u(0,2,2) u(2,0,2) y(0,3,2) y(3,0,2) v(0,3,2) v(3,0,2) u(0,3,2) u(3,0,2) 
x(1,2) y(1,2,2) y(2,1,2) v(1,2,2) v(2,1,2) u(1,2,2) u(2,1,2) y(1,3,2) y(3,1,2) v(1,3,2) 
v(3,1,2) u(1,3,2) u(3,1,2) x(2,2) y(2,3,2) y(3,2,2) v(2,3,2) v(3,2,2) u(2,3,2) u(3,2,2) 
x(3,2) 
End
